(declare-const X String)
; ^([A-Z]+[a-zA-Z]*)(\s|\-)?([A-Z]+[a-zA-Z]*)?(\s|\-)?([A-Z]+[a-zA-Z]*)?$
(assert (str.in_re X (re.++ (re.opt (re.union (str.to_re "-") (str.to_re " ") (str.to_re "\u{9}") (str.to_re "\u{a}") (str.to_re "\u{c}") (str.to_re "\u{d}"))) (re.opt (re.++ (re.+ (re.range "A" "Z")) (re.* (re.union (re.range "a" "z") (re.range "A" "Z"))))) (re.opt (re.union (str.to_re "-") (str.to_re " ") (str.to_re "\u{9}") (str.to_re "\u{a}") (str.to_re "\u{c}") (str.to_re "\u{d}"))) (re.opt (re.++ (re.+ (re.range "A" "Z")) (re.* (re.union (re.range "a" "z") (re.range "A" "Z"))))) (str.to_re "\u{a}") (re.+ (re.range "A" "Z")) (re.* (re.union (re.range "a" "z") (re.range "A" "Z"))))))
; filename=\x22Subject\x3awww\x2Eadoptim\x2Ecomreport\x2Fbar_pl\x2Fchk\.fcgi
(assert (not (str.in_re X (str.to_re "filename=\u{22}Subject:www.adoptim.comreport/bar_pl/chk.fcgi\u{a}"))))
(check-sat)
